************************************************************************
file with basedata            : md362_.bas
initial value random generator: 1882958209
************************************************************************
projects                      :  1
jobs (incl. supersource/sink ):  22
horizon                       :  172
RESOURCES
  - renewable                 :  2   R
  - nonrenewable              :  2   N
  - doubly constrained        :  0   D
************************************************************************
PROJECT INFORMATION:
pronr.  #jobs rel.date duedate tardcost  MPM-Time
    1     20      0       29        3       29
************************************************************************
PRECEDENCE RELATIONS:
jobnr.    #modes  #successors   successors
   1        1          3           2   3   4
   2        3          2          10  20
   3        3          2           9  18
   4        3          3           5   8  12
   5        3          3           6   7  18
   6        3          2           9  16
   7        3          3           9  16  20
   8        3          3          10  11  14
   9        3          2          13  17
  10        3          3          15  17  19
  11        3          1          15
  12        3          3          15  17  19
  13        3          2          14  19
  14        3          1          21
  15        3          1          16
  16        3          1          21
  17        3          1          21
  18        3          1          20
  19        3          1          22
  20        3          1          22
  21        3          1          22
  22        1          0        
************************************************************************
REQUESTS/DURATIONS:
jobnr. mode duration  R 1  R 2  N 1  N 2
------------------------------------------------------------------------
  1      1     0       0    0    0    0
  2      1     4       0    6    3    6
         2     5       5    0    3    3
         3     8       4    0    2    2
  3      1     4       0    6    4    9
         2     7       7    0    3    9
         3     9       3    0    3    8
  4      1     3       6    0    5    4
         2     4       0    3    5    4
         3    10       3    0    4    4
  5      1     5       9    0    1    6
         2     8       0    7    1    4
         3     9       8    0    1    4
  6      1     4       0    9    8    7
         2     7       3    0    6    5
         3     8       0    7    3    5
  7      1     1       0   10    9    9
         2     9       8    0    6    8
         3    10       0    9    3    8
  8      1     8       0   10    8    7
         2     8       5    0    8    6
         3     9       3    0    4    4
  9      1     6       0    5    6    7
         2     8       0    3    5    7
         3     9       0    3    2    5
 10      1     2       0    9    9    7
         2     2       7    0    9    7
         3     6       1    0    7    6
 11      1     7       0    6    9    9
         2     8       0    1    9    7
         3    10       3    0    9    1
 12      1     4       0    4    6    8
         2     6       0    3    5    8
         3     8       3    0    2    8
 13      1     7       4    0    8    2
         2     7       0    5    7    2
         3     8       0    2    5    1
 14      1     2       8    0    6   10
         2     7       0    7    5    9
         3     9       7    0    1    8
 15      1     3       0    5    6    4
         2     6       8    0    6    4
         3     8       1    0    6    3
 16      1     1       6    0    9    3
         2     2       4    0    7    3
         3     6       4    0    6    2
 17      1     3       2    0    7    7
         2     6       0   10    7    5
         3     7       0    6    3    2
 18      1     1       0    8    7    2
         2     5       6    0    5    2
         3    10       0    5    3    2
 19      1     3       0    4    1    5
         2     6       3    0    1    4
         3     8       3    0    1    2
 20      1     1       0    5    8    4
         2     2       0    4    5    3
         3    10       3    0    5    3
 21      1     2       0    3    8    4
         2     7       3    0    7    3
         3    10       0    3    5    3
 22      1     0       0    0    0    0
************************************************************************
RESOURCEAVAILABILITIES:
  R 1  R 2  N 1  N 2
   17   23  102  101
************************************************************************
MAXIMAL LAGS:
from  to  type  delay
    1   22   ES      0
    1    2   ES      0
    2   22   ES      0
    1    3   ES      0
    3   22   ES      0
    1    4   ES      0
    4   22   ES      0
    1    5   ES      0
    5   22   ES      0
    1    6   ES      0
    6   22   ES      0
    1    7   ES      0
    7   22   ES      0
    1    8   ES      0
    8   22   ES      0
    1    9   ES      0
    9   22   ES      0
    1   10   ES      0
   10   22   ES      0
    1   11   ES      0
   11   22   ES      0
    1   12   ES      0
   12   22   ES      0
    1   13   ES      0
   13   22   ES      0
    1   14   ES      0
   14   22   ES      0
    1   15   ES      0
   15   22   ES      0
    1   16   ES      0
   16   22   ES      0
    1   17   ES      0
   17   22   ES      0
    1   18   ES      0
   18   22   ES      0
    1   19   ES      0
   19   22   ES      0
    1   20   ES      0
   20   22   ES      0
    1   21   ES      0
   21   22   ES      0
    1   22   ES      0
    2   10   SS      8
    2   10   SE      4
    2   10   ES     -6
    2   10   EE      7
    2   20   SS      4
    2   20   SE     -2
    2   20   ES      8
    2   20   EE      8
    3    9   SS     10
    3    9   SE      6
    3    9   ES     11
    3    9   EE    -11
    3   18   SS      2
    3   18   SE      7
    3   18   ES     10
    3   18   EE      6
    4    5   SS      1
    4    5   SE     -1
    4    5   ES      4
    4    5   EE     -2
    4    8   SS      2
    4    8   SE      4
    4    8   ES     12
    4    8   EE     -5
    4   12   SS      9
    4   12   SE      3
    4   12   ES     -2
    4   12   EE      1
    5    6   SS      9
    5    6   SE      5
    5    6   ES    -10
    5    6   EE      0
    5    7   SS      3
    5    7   SE      4
    5    7   ES     -3
    5    7   EE     -6
    5   18   SS     -3
    5   18   SE      9
    5   18   ES    -11
    5   18   EE      3
    6    9   SS     10
    6    9   SE     -6
    6    9   ES    -11
    6    9   EE      2
    6   16   SS      8
    6   16   SE      9
    6   16   ES     -9
    6   16   EE      9
    7    9   SS      2
    7    9   SE      2
    9    7   SE      0
    7    9   ES      0
    7    9   EE     -9
    7   16   SS      9
    7   16   SE      8
    7   16   ES     -6
    7   16   EE     -2
    7   20   SS      9
    7   20   SE    -12
    7   20   ES      8
    7   20   EE      8
    8   10   SS    -12
    8   10   SE      3
    8   10   ES      4
    8   10   EE      5
    8   11   SS     -6
    8   11   SE      0
    8   11   ES      6
    8   11   EE     -7
    8   14   SS     -8
    8   14   SE     -6
    8   14   ES     -6
    8   14   EE     10
    9   13   SS     10
    9   13   SE      4
    9   13   ES     -2
    9   13   EE     -3
    9   17   SS    -12
    9   17   SE     -5
    9   17   ES     -6
    9   17   EE      1
   10   15   SS      6
   10   15   SE      6
   10   15   ES      7
   10   15   EE     -2
   10   17   SS     -8
   10   17   SE      5
   10   17   ES     -2
   10   17   EE      9
   10   19   SS     12
   10   19   SE    -11
   10   19   ES     11
   10   19   EE     -7
   11   15   SS     -5
   11   15   SE    -10
   11   15   ES     12
   11   15   EE     -8
   12   15   SS      9
   12   15   SE      0
   12   15   ES     -2
   12   15   EE     -6
   12   17   SS     -7
   12   17   SE      2
   12   17   ES     -5
   12   17   EE     -2
   12   19   SS     10
   12   19   SE      9
   12   19   ES     10
   12   19   EE     -2
   13   14   SS     -9
   13   14   SE     -3
   13   14   ES      7
   13   14   EE      2
   13   19   SS     -8
   13   19   SE     -4
   13   19   ES      7
   13   19   EE     10
   14   21   SS    -11
   14   21   SE     -6
   14   21   ES     -8
   14   21   EE     -8
   15   16   SS     -5
   15   16   SE     -4
   15   16   ES      3
   15   16   EE      3
   16   21   SS    -10
   16   21   SE     -3
   16   21   ES      1
   16   21   EE      7
   17   21   SS     -2
   17   21   SE    -11
   17   21   ES      6
   17   21   EE     -5
   18   20   SS     10
   18   20   SE     -1
   18   20   ES     -2
   18   20   EE     -1
************************************************************************
